NAME : A-n54-k7.709269.tour
COMMENT : Length = 709269
COMMENT : Found by LKH [Keld Helsgaun] Sun Dec 17 18:41:43 2017
TYPE : TOUR
DIMENSION : 60
TOUR_SECTION
1
44
5
29
19
6
8
40
51
58
24
21
30
50
37
2
18
27
46
56
53
31
35
26
48
42
47
52
43
25
59
36
16
39
45
10
34
22
57
11
12
54
4
23
55
7
14
20
9
32
41
49
60
17
33
15
28
3
13
38
-1
EOF
